HUN,8,6,472
1,91,5,54,0,50,4,75,3,29,2,3
3,77,4,26,0,73,2,94,1,10,5,75
4,14,0,35,5,49,3,83,2,69,1,65
2,68,1,97,4,79,3,12,5,70,0,76
2,99,1,20,5,1,0,54,4,19,3,18
3,29,1,81,0,79,5,23,4,34,2,83
4,66,5,1,3,19,0,11,1,60,2,19
4,26,5,8,1,19,0,80,2,29,3,62
